decision_x1=[0,2];
decision_x2=[0,2];
decision_x3=[0,2];
decision_x4=[0,2];
decision_x5=[0,2];
decision_x6=[0,2];
random_y1=[0,2];
random_y2=[0,2];
constraint_x3_x1=[
0,0,8.9|
0,1,6.8|
0,2,8.4|
1,0,6|
1,1,6.8|
1,2,1.1|
2,0,3|
2,1,6|
2,2,3.2|
];
constraint_x3_x2=[
0,0,6.2|
0,1,7.8|
0,2,8.7|
1,0,9.5|
1,1,8.2|
1,2,8.6|
2,0,5.6|
2,1,3.3|
2,2,1.5|
];
constraint_x4_x1=[
0,0,7.9|
0,1,5.6|
0,2,3.3|
1,0,8.8|
1,1,6.3|
1,2,8.9|
2,0,7.6|
2,1,5.5|
2,2,1.4|
];
constraint_x4_x3=[
0,0,8.6|
0,1,6.7|
0,2,2.5|
1,0,2.2|
1,1,9.1|
1,2,4.1|
2,0,9.5|
2,1,1.2|
2,2,0.03|
];
constraint_x5_x3=[
0,0,9.9|
0,1,4.4|
0,2,2.7|
1,0,7.6|
1,1,5.7|
1,2,3.8|
2,0,1.8|
2,1,6.2|
2,2,2.3|
];
constraint_x5_x4=[
0,0,8.2|
0,1,3.8|
0,2,5|
1,0,4.8|
1,1,8.8|
1,2,6.5|
2,0,3.1|
2,1,6.5|
2,2,5.4|
];
constraint_x6_x1=[
0,0,8.3|
0,1,4.3|
0,2,8.2|
1,0,7.5|
1,1,3.7|
1,2,7.9|
2,0,4|
2,1,7.2|
2,2,3|
];
constraint_x6_x4=[
0,0,4.9|
0,1,8.7|
0,2,9.1|
1,0,4.3|
1,1,7.9|
1,2,7.8|
2,0,7.7|
2,1,9.6|
2,2,1.7|
];
constraint_x1_y1=[
0,0,9.6|
0,1,1.2|
0,2,9.2|
1,0,7.7|
1,1,6.6|
1,2,9|
2,0,4|
2,1,3.9|
2,2,7|
];
constraint_x2_y2=[
0,0,7.9|
0,1,5.1|
0,2,6.6|
1,0,5|
1,1,3.1|
1,2,1|
2,0,5.8|
2,1,5.3|
2,2,3|
];
initial_distribution_y1=[0.1,0.38,0.52];
initial_distribution_y2=[0.31,0.076,0.61];
transition_y1=[
0.42,0.16,0.42|
0.38,0.44,0.18|
0.33,0.28,0.39|
];
transition_y2=[
0.059,0.67,0.27|
0.032,0.39,0.58|
0.097,0.48,0.43|
];
